1 -1 2 0
1 -1 -3 0
1 -1 4 0
1 -5 6 0
1 -5 -2 0
1 5 4 0
1 -7 -8 0
1 7 -9 0
1 10 11 0
1 10 12 0
1 -13 4 0
1 -4 -14 0
1 -4 15 0
1 -4 -16 0
1 -4 -17 0
1 -4 18 0
1 4 7 0
1 2 19 0
1 2 20 0
1 -2 21 0
1 22 19 0
1 -22 23 0
1 -22 -21 0
1 22 24 0
1 22 1 0
1 -18 13 0
1 18 -12 0
1 16 -25 0
1 -16 23 0
1 -16 8 0
1 17 25 0
1 -17 -26 0
1 -17 -21 0
1 17 -27 0
1 -17 -4 0
1 15 -25 0
1 15 26 0
1 12 -28 0
1 -12 -29 0
1 -12 7 0
1 12 -30 0
1 -31 -32 0
1 31 -33 0
1 31 -15 0
1 -31 10 0
1 -31 29 0
1 31 34 0
1 31 -35 0
1 8 -16 0
1 8 -36 0
1 25 -15 0
1 25 36 0
1 -25 -18 0
1 -25 7 0
1 -35 -12 0
1 -32 -37 0
1 32 12 0
1 -34 -38 0
1 -28 31 0
1 -28 34 0
1 -27 -28 0
1 -27 -35 0
1 39 40 0
1 39 34 0
1 -39 35 0
1 39 17 0
1 -41 15 0
1 -41 -26 0
1 41 42 0
1 -41 -29 0
1 -41 -34 0
1 -41 43 0
1 -41 -44 0
1 41 45 0
1 26 -32 0
1 26 46 0
1 -26 -35 0
1 -26 17 0
1 26 -41 0
1 26 -45 0
1 -3 -47 0
1 -3 1 0
1 -6 -48 0
1 -6 -49 0
1 -6 -50 0
1 6 -3 0
1 -9 51 0
1 9 -50 0
1 11 47 0
1 11 -49 0
1 11 52 0
1 47 -19 0
1 50 -19 0
1 50 53 0
1 -50 24 0
1 50 9 0
1 51 54 0
1 -51 -49 0
1 49 51 0
1 49 55 0
1 -49 -54 0
1 -49 11 0
1 -49 56 0
1 -24 57 0
1 -24 2 0
1 24 -18 0
1 -23 47 0
1 23 58 0
1 -23 -2 0
1 23 22 0
1 -21 -59 0
1 -21 2 0
1 21 17 0
1 -21 -60 0
1 -21 -61 0
1 -21 22 0
1 -19 -62 0
1 19 57 0
1 19 -52 0
1 19 22 0
1 57 -21 0
1 -63 64 0
1 63 -65 0
1 -63 -57 0
1 63 38 0
1 58 -64 0
1 -58 11 0
1 58 53 0
1 -58 -9 0
1 52 -64 0
1 -52 -55 0
1 52 58 0
1 -52 -23 0
1 -52 66 0
1 -52 -67 0
1 52 24 0
1 -52 9 0
1 -36 25 0
1 -36 -2 0
1 -36 -63 0
1 36 22 0
1 36 4 0
1 37 -25 0
1 -37 -22 0
1 38 -14 0
1 38 -25 0
1 38 -61 0
1 -65 -68 0
1 65 20 0
1 65 -69 0
1 -65 -70 0
1 59 46 0
1 59 45 0
1 -61 37 0
1 61 -71 0
1 -61 -38 0
1 -61 30 0
1 -68 72 0
1 68 38 0
1 60 64 0
1 60 -68 0
1 -60 71 0
1 -60 -73 0
1 -29 14 0
1 29 31 0
1 -29 -61 0
1 29 70 0
1 -30 -25 0
1 30 14 0
1 30 29 0
1 46 -14 0
1 46 74 0
1 -46 -75 0
1 46 -20 0
1 46 76 0
1 46 -45 0
1 -45 -33 0
1 -45 26 0
1 45 59 0
1 45 -46 0
1 -69 77 0
1 -69 -78 0
1 -69 -79 0
1 69 80 0
1 -14 81 0
1 -14 -46 0
1 14 30 0
1 20 65 0
1 20 82 0
1 20 -2 0
1 -20 -83 0
1 -20 45 0
1 20 -30 0
1 -70 -71 0
1 -70 46 0
1 70 84 0
1 42 -26 0
1 -42 33 0
1 42 39 0
1 -42 71 0
1 -42 -69 0
1 42 76 0
1 -42 44 0
1 -44 -14 0
1 44 -74 0
1 -44 -33 0
1 44 -76 0
1 44 27 0
1 44 -84 0
1 -78 74 0
1 -78 -33 0
1 -78 -40 0
1 85 -74 0
1 85 -86 0
1 -85 -87 0
1 -86 -88 0
1 86 78 0
1 -86 -89 0
1 -86 90 0
1 -86 -85 0
1 -33 88 0
1 -33 91 0
1 -33 -92 0
1 33 -86 0
1 33 -90 0
1 76 -88 0
1 -76 78 0
1 76 -93 0
1 -76 44 0
1 -76 45 0
1 -74 94 0
1 -74 80 0
1 92 -33 0
1 -92 95 0
1 92 43 0
1 -90 -33 0
1 -90 40 0
1 90 86 0
1 -91 40 0
1 -91 -96 0
1 91 86 0
1 -91 43 0
1 -91 87 0
1 96 -91 0
1 96 86 0
1 96 -43 0
1 -87 -97 0
1 -87 -92 0
1 -87 96 0
1 -87 90 0
1 87 -27 0
1 40 -39 0
1 40 98 0
1 -40 -87 0
1 43 -99 0
1 43 88 0
1 -43 -100 0
1 43 96 0
1 95 92 0
1 -95 -98 0
1 95 100 0
1 95 43 0
1 -95 85 0
1 101 48 0
1 -101 102 0
1 101 -3 0
1 48 -103 0
1 -48 104 0
1 -105 106 0
1 105 -107 0
1 -108 -109 0
1 -108 -110 0
1 -111 104 0
1 111 -54 0
1 111 48 0
1 104 -62 0
1 102 112 0
1 102 113 0
1 -102 -108 0
1 -102 -114 0
1 -102 -105 0
1 103 -102 0
1 -103 -114 0
1 115 -104 0
1 115 -24 0
1 54 -116 0
1 54 -110 0
1 54 -49 0
1 -54 -115 0
1 -117 -118 0
1 117 -111 0
1 117 -107 0
1 62 51 0
1 62 111 0
1 62 -106 0
1 -62 -117 0
1 107 62 0
1 -107 109 0
1 -107 -117 0
1 -107 -115 0
1 109 62 0
1 109 54 0
1 -109 -108 0
1 -109 119 0
1 -109 -117 0
1 -109 -115 0
1 110 120 0
1 -110 -62 0
1 -110 -106 0
1 -110 108 0
1 -110 -121 0
1 110 -115 0
1 110 105 0
1 -106 -122 0
1 106 113 0
1 -106 119 0
1 106 -121 0
1 106 -123 0
1 106 -115 0
1 106 105 0
1 53 -124 0
1 -53 -51 0
1 53 55 0
1 53 -109 0
1 -53 50 0
1 53 -52 0
1 53 -36 0
1 53 123 0
1 -53 -107 0
1 -53 -125 0
1 55 -126 0
1 55 -52 0
1 -55 -53 0
1 66 124 0
1 66 127 0
1 -66 128 0
1 66 -109 0
1 -66 129 0
1 -66 52 0
1 127 128 0
1 -127 -58 0
1 -127 126 0
1 -127 -129 0
1 124 130 0
1 124 131 0
1 -124 126 0
1 124 117 0
1 124 73 0
1 126 -64 0
1 126 -127 0
1 -126 53 0
1 125 -122 0
1 -125 132 0
1 -125 -53 0
1 125 -117 0
1 -125 -133 0
1 118 122 0
1 -118 62 0
1 118 -66 0
1 -118 125 0
1 -134 -64 0
1 134 124 0
1 -134 -135 0
1 134 -126 0
1 -134 -29 0
1 -64 -135 0
1 -64 128 0
1 64 -68 0
1 -64 -134 0
1 64 -52 0
1 75 -128 0
1 -75 136 0
1 -73 -124 0
1 73 128 0
1 -73 -136 0
1 73 68 0
1 -73 -67 0
1 73 137 0
1 73 -45 0
1 73 -138 0
1 -128 -64 0
1 -129 -127 0
1 129 139 0
1 129 66 0
1 129 83 0
1 -129 84 0
1 -129 73 0
1 -135 -127 0
1 -135 140 0
1 -135 66 0
1 135 -141 0
1 135 -142 0
1 -56 -131 0
1 -56 -49 0
1 56 -141 0
1 -56 -142 0
1 -71 -136 0
1 71 -42 0
1 -71 -84 0
1 71 -70 0
1 -84 128 0
1 -84 -136 0
1 84 -71 0
1 84 -20 0
1 -84 70 0
1 82 140 0
1 -82 -20 0
1 -82 -70 0
1 -83 129 0
1 -143 137 0
1 -143 -77 0
1 -143 -94 0
1 -143 73 0
1 -137 144 0
1 137 145 0
1 -137 -82 0
1 137 63 0
1 137 -146 0
1 -136 147 0
1 136 71 0
1 136 148 0
1 136 -149 0
1 -136 141 0
1 -136 84 0
1 136 -73 0
1 -67 150 0
1 67 82 0
1 67 148 0
1 77 -74 0
1 -77 139 0
1 -77 80 0
1 80 74 0
1 80 -72 0
1 -80 151 0
1 -80 -137 0
1 80 -152 0
1 -145 -150 0
1 145 137 0
1 -145 -152 0
1 -94 145 0
1 94 -76 0
1 94 -137 0
1 -94 152 0
1 -151 -99 0
1 151 -59 0
1 -151 -153 0
1 -151 -154 0
1 151 -80 0
1 152 -155 0
1 152 -99 0
1 -152 88 0
1 152 -82 0
1 -152 100 0
1 152 -80 0
1 -72 144 0
1 -72 77 0
1 72 -83 0
1 156 145 0
1 -156 82 0
1 156 -148 0
1 156 -60 0
1 156 83 0
1 88 -81 0
1 88 -74 0
1 88 144 0
1 -88 157 0
1 -88 152 0
1 88 158 0
1 -154 81 0
1 -154 151 0
1 154 157 0
1 154 86 0
1 -154 -43 0
1 -154 -152 0
1 -154 -158 0
1 -99 159 0
1 99 -160 0
1 -99 157 0
1 -100 -81 0
1 100 99 0
1 100 95 0
1 -100 -157 0
1 100 158 0
1 79 81 0
1 79 -161 0
1 -81 99 0
1 81 88 0
1 81 145 0
1 81 162 0
1 -81 -98 0
1 81 -100 0
1 81 163 0
1 157 155 0
1 157 -145 0
1 -157 154 0
1 157 164 0
1 158 99 0
1 158 -145 0
1 -158 164 0
1 97 159 0
1 -97 -40 0
1 -97 -93 0
1 97 -87 0
1 -98 81 0
1 98 160 0
1 98 95 0
1 163 165 0
1 163 -166 0
1 -162 -160 0
1 162 165 0
1 -162 -167 0
1 -162 -163 0
1 89 -97 0
1 89 -160 0
1 89 168 0
1 -89 169 0
1 160 33 0
1 160 98 0
1 -160 -170 0
1 160 171 0
1 93 99 0
1 93 -76 0
1 93 -164 0
1 159 93 0
1 -159 -172 0
1 -159 164 0
1 -169 165 0
1 -169 -173 0
1 -174 -173 0
1 171 -173 0
1 175 -160 0
1 -175 165 0
1 -175 176 0
1 -167 -175 0
1 -167 162 0
1 -167 -177 0
1 173 171 0
1 -166 -178 0
1 166 179 0
1 166 165 0
1 -166 180 0
1 166 -163 0
1 165 181 0
1 -165 -163 0
1 -182 -183 0
1 -182 184 0
1 -185 184 0
1 -185 -48 0
1 185 186 0
1 -185 187 0
1 188 -189 0
1 188 -186 0
1 188 105 0
1 188 -190 0
1 188 191 0
1 192 108 0
1 -192 -189 0
1 -192 -193 0
1 -192 -187 0
1 -192 188 0
1 192 191 0
1 184 -194 0
1 -187 -116 0
1 187 184 0
1 -187 195 0
1 187 188 0
1 -187 182 0
1 -196 -197 0
1 -196 -198 0
1 -196 192 0
1 196 199 0
1 196 185 0
1 196 -186 0
1 -196 -200 0
1 196 -201 0
1 -196 -188 0
1 -186 198 0
1 186 -185 0
1 -186 -182 0
1 -202 187 0
1 202 -191 0
1 -116 184 0
1 -116 189 0
1 116 193 0
1 116 191 0
1 114 -189 0
1 -114 -203 0
1 114 204 0
1 -114 200 0
1 114 187 0
1 114 -190 0
1 -114 -191 0
1 -205 206 0
1 -205 -203 0
1 205 102 0
1 193 -113 0
1 193 -114 0
1 -193 -191 0
1 -191 120 0
1 -191 -113 0
1 -191 193 0
1 191 -121 0
1 191 -202 0
1 -189 -207 0
1 -189 205 0
1 189 208 0
1 190 207 0
1 190 209 0
1 190 197 0
1 -190 205 0
1 190 -116 0
1 -190 -188 0
1 123 -206 0
1 -123 210 0
1 123 193 0
1 -123 -102 0
1 -123 110 0
1 -113 -104 0
1 -113 -106 0
1 -113 193 0
1 113 204 0
1 -113 -123 0
1 -113 111 0
1 -121 211 0
1 -121 106 0
1 121 -203 0
1 121 66 0
1 120 -206 0
1 120 -210 0
1 -120 -106 0
1 -120 -193 0
1 120 204 0
1 120 112 0
1 120 -110 0
1 -204 122 0
1 -204 205 0
1 204 212 0
1 204 -119 0
1 -204 123 0
1 210 -120 0
1 210 -205 0
1 210 -212 0
1 203 213 0
1 -203 113 0
1 -203 214 0
1 -203 -123 0
1 -206 213 0
1 -206 207 0
1 -206 215 0
1 206 205 0
1 -206 216 0
1 -206 208 0
1 206 -123 0
1 119 210 0
1 119 -109 0
1 122 -106 0
1 122 217 0
1 -212 211 0
1 -212 -118 0
1 -212 -75 0
1 -212 112 0
1 212 -217 0
1 -212 218 0
1 138 210 0
1 -138 -211 0
1 -138 212 0
1 138 73 0
1 -217 -122 0
1 217 -219 0
1 217 131 0
1 -217 -142 0
1 -217 138 0
1 -211 -122 0
1 -211 -219 0
1 211 140 0
1 211 121 0
1 211 -142 0
1 211 -138 0
1 112 -120 0
1 112 -220 0
1 112 102 0
1 -112 221 0
1 -112 222 0
1 112 138 0
1 -220 103 0
1 220 212 0
1 -220 121 0
1 -220 -221 0
1 -131 -211 0
1 131 -216 0
1 -131 223 0
1 131 -133 0
1 -131 -125 0
1 133 124 0
1 133 -126 0
1 133 56 0
1 -133 -217 0
1 140 211 0
1 -140 218 0
1 -140 142 0
1 -142 130 0
1 142 224 0
1 -142 140 0
1 -142 -217 0
1 142 218 0
1 142 223 0
1 -223 -225 0
1 223 131 0
1 223 -212 0
1 -223 226 0
1 227 139 0
1 -227 -228 0
1 227 223 0
1 227 133 0
1 218 -225 0
1 218 224 0
1 218 -229 0
1 -218 230 0
1 218 -221 0
1 -218 -142 0
1 -224 -219 0
1 -224 -140 0
1 224 218 0
1 -224 -133 0
1 224 138 0
1 139 128 0
1 139 -227 0
1 139 -129 0
1 -139 -67 0
1 139 141 0
1 -139 -223 0
1 141 -135 0
1 141 128 0
1 -141 227 0
1 141 56 0
1 150 -231 0
1 -149 227 0
1 149 -232 0
1 -149 -233 0
1 149 234 0
1 -149 67 0
1 149 223 0
1 130 -124 0
1 -130 235 0
1 130 149 0
1 -130 -142 0
1 -235 126 0
1 -235 -236 0
1 235 148 0
1 235 149 0
1 -132 -237 0
1 -132 -225 0
1 132 142 0
1 232 150 0
1 -232 139 0
1 -232 140 0
1 -232 238 0
1 232 229 0
1 -232 -149 0
1 144 88 0
1 144 -239 0
1 -144 233 0
1 -144 -148 0
1 148 231 0
1 148 -239 0
1 -148 -136 0
1 -148 143 0
1 148 72 0
1 148 154 0
1 148 233 0
1 -148 234 0
1 148 -137 0
1 -240 130 0
1 240 -241 0
1 240 -72 0
1 -240 146 0
1 240 -156 0
1 -242 241 0
1 -242 72 0
1 242 234 0
1 242 -146 0
1 -239 -242 0
1 -239 -243 0
1 -234 -155 0
1 -234 -144 0
1 -234 -239 0
1 234 -244 0
1 231 240 0
1 -231 135 0
1 -231 -245 0
1 231 -150 0
1 -231 246 0
1 233 150 0
1 -233 -238 0
1 233 -242 0
1 155 239 0
1 155 153 0
1 -155 -247 0
1 -155 -146 0
1 155 152 0
1 153 -151 0
1 153 157 0
1 153 -247 0
1 -153 -152 0
1 243 -147 0
1 -248 -249 0
1 248 -162 0
1 248 250 0
1 248 -158 0
1 241 155 0
1 -241 -240 0
1 241 143 0
1 241 243 0
1 -146 -240 0
1 146 -251 0
1 -146 252 0
1 -147 251 0
1 147 243 0
1 -247 253 0
1 -247 248 0
1 247 -153 0
1 -247 -251 0
1 -247 -243 0
1 164 81 0
1 -164 -249 0
1 164 169 0
1 254 -241 0
1 -254 249 0
1 254 -79 0
1 254 -93 0
1 -254 255 0
1 -172 241 0
1 176 -249 0
1 176 255 0
1 176 -256 0
1 -176 161 0
1 176 -93 0
1 176 172 0
1 257 -258 0
1 -257 -179 0
1 257 -254 0
1 -257 172 0
1 257 -243 0
1 -250 176 0
1 250 248 0
1 250 257 0
1 -250 259 0
1 -250 -170 0
1 250 243 0
1 -249 -258 0
1 249 -260 0
1 -249 248 0
1 -249 -261 0
1 255 -259 0
1 -255 -243 0
1 -170 -262 0
1 170 168 0
1 170 256 0
1 170 -89 0
1 170 -166 0
1 170 -250 0
1 168 -165 0
1 -168 166 0
1 -168 170 0
1 180 -261 0
1 -180 263 0
1 -179 -264 0
1 179 256 0
1 179 -180 0
1 179 166 0
1 -161 265 0
1 -161 -266 0
1 -161 79 0
1 262 168 0
1 -262 -176 0
1 262 266 0
1 -256 258 0
1 -256 -265 0
1 256 -267 0
1 268 269 0
1 -268 -168 0
1 -177 178 0
1 -178 258 0
1 178 -264 0
1 -178 177 0
1 178 166 0
1 178 167 0
1 -266 -270 0
1 266 271 0
1 -266 264 0
1 -266 -267 0
1 266 161 0
1 -266 -263 0
1 -266 -272 0
1 -270 271 0
1 -270 264 0
1 270 -181 0
1 -270 -273 0
1 -273 -178 0
1 273 -266 0
1 -264 274 0
1 -264 -275 0
1 263 -276 0
1 -263 277 0
1 271 -270 0
1 271 -278 0
1 271 -265 0
1 -271 266 0
1 271 279 0
1 280 181 0
1 -275 269 0
1 -275 -181 0
1 275 273 0
1 274 281 0
1 274 -282 0
1 -282 272 0
1 283 -270 0
1 283 284 0
1 -283 274 0
1 283 -285 0
1 -283 -282 0
1 -281 -266 0
1 -272 -284 0
1 -272 -274 0
1 -272 -266 0
1 -181 270 0
1 -181 -284 0
1 181 280 0
1 -181 -266 0
1 181 272 0
1 -181 275 0
1 183 286 0
1 183 -182 0
1 -286 183 0
1 -286 -287 0
1 -288 -289 0
1 -288 -290 0
1 291 192 0
1 -291 -289 0
1 -291 -292 0
1 -291 288 0
1 -287 286 0
1 -287 -290 0
1 290 -293 0
1 -294 -288 0
1 -289 -291 0
1 289 -294 0
1 -201 295 0
1 201 292 0
1 -201 -202 0
1 293 287 0
1 -293 296 0
1 293 186 0
1 -293 201 0
1 -200 -287 0
1 200 198 0
1 200 297 0
1 -200 -298 0
1 200 -114 0
1 198 -292 0
1 296 -299 0
1 296 -197 0
1 -296 -198 0
1 296 291 0
1 -296 -292 0
1 296 -300 0
1 -296 -195 0
1 -292 201 0
1 295 301 0
1 -295 293 0
1 295 297 0
1 295 300 0
1 297 -200 0
1 297 -201 0
1 -195 302 0
1 195 184 0
1 195 187 0
1 195 -190 0
1 -197 303 0
1 197 196 0
1 197 -189 0
1 304 303 0
1 -304 -305 0
1 -209 120 0
1 209 298 0
1 303 197 0
1 -303 -198 0
1 -303 -306 0
1 -303 -298 0
1 -298 303 0
1 -298 208 0
1 -302 197 0
1 302 304 0
1 -302 -307 0
1 305 304 0
1 -208 303 0
1 208 -193 0
1 -208 298 0
1 207 308 0
1 214 213 0
1 214 206 0
1 214 194 0
1 -214 -309 0
1 -214 -310 0
1 213 311 0
1 213 312 0
1 -213 194 0
1 -213 -313 0
1 213 214 0
1 -213 -203 0
1 -213 -314 0
1 -194 -213 0
1 -194 -207 0
1 -194 214 0
1 -194 304 0
1 194 -315 0
1 -314 -213 0
1 314 209 0
1 -314 208 0
1 -314 304 0
1 -314 -316 0
1 -199 317 0
1 199 306 0
1 -199 308 0
1 308 213 0
1 -308 -199 0
1 -308 304 0
1 -216 311 0
1 216 131 0
1 -216 306 0
1 216 112 0
1 216 -316 0
1 316 210 0
1 -316 -220 0
1 -316 309 0
1 316 -112 0
1 -316 -307 0
1 -318 -194 0
1 -318 319 0
1 222 215 0
1 -222 -220 0
1 -222 112 0
1 -222 -320 0
1 -309 -213 0
1 309 321 0
1 309 -322 0
1 -309 216 0
1 -309 -323 0
1 309 324 0
1 -309 -222 0
1 -311 -213 0
1 -311 -214 0
1 311 191 0
1 313 321 0
1 313 -318 0
1 313 325 0
1 -313 214 0
1 -313 -324 0
1 -310 216 0
1 -310 313 0
1 -310 326 0
1 -219 224 0
1 219 327 0
1 -221 220 0
1 221 -217 0
1 -221 -319 0
1 221 141 0
1 -322 -311 0
1 322 -215 0
1 -322 309 0
1 322 -319 0
1 -230 -215 0
1 230 328 0
1 -230 -329 0
1 -230 309 0
1 230 326 0
1 230 330 0
1 -230 -218 0
1 331 332 0
1 331 333 0
1 -331 225 0
1 -331 -322 0
1 -331 -219 0
1 331 318 0
1 -331 -334 0
1 331 -204 0
1 -331 -222 0
1 -328 332 0
1 328 -331 0
1 328 221 0
1 328 222 0
1 319 335 0
1 319 321 0
1 319 322 0
1 -319 324 0
1 215 -332 0
1 -215 335 0
1 -215 -321 0
1 215 -322 0
1 -215 -221 0
1 -225 -224 0
1 225 331 0
1 -225 -330 0
1 -225 -223 0
1 -229 -329 0
1 229 -224 0
1 -229 232 0
1 229 -331 0
1 229 336 0
1 -333 -329 0
1 -333 -232 0
1 -334 333 0
1 -334 329 0
1 334 337 0
1 -334 228 0
1 -334 -232 0
1 -334 -331 0
1 -330 338 0
1 330 -339 0
1 330 -340 0
1 -341 -342 0
1 -341 -338 0
1 341 339 0
1 341 330 0
1 -336 -329 0
1 -336 343 0
1 -336 344 0
1 -336 -112 0
1 -336 345 0
1 -329 225 0
1 -329 -344 0
1 346 228 0
1 346 233 0
1 346 -330 0
1 238 130 0
1 238 -233 0
1 238 -330 0
1 -342 -231 0
1 -342 341 0
1 342 -347 0
1 342 330 0
1 -339 237 0
1 -339 348 0
1 -339 226 0
1 226 349 0
1 -226 -228 0
1 -226 238 0
1 226 -350 0
1 228 -346 0
1 228 -349 0
1 228 -351 0
1 228 352 0
1 -228 353 0
1 -337 224 0
1 337 354 0
1 -246 -348 0
1 246 239 0
1 246 -236 0
1 -353 -348 0
1 353 351 0
1 -353 228 0
1 353 355 0
1 -353 -226 0
1 -351 -247 0
1 -351 226 0
1 -348 -356 0
1 -348 353 0
1 -236 342 0
1 236 -348 0
1 236 -351 0
1 -236 -235 0
1 237 357 0
1 -237 358 0
1 237 -339 0
1 237 353 0
1 347 -342 0
1 347 -351 0
1 -347 359 0
1 -347 360 0
1 -347 361 0
1 -251 -253 0
1 251 147 0
1 251 -241 0
1 -251 -355 0
1 -251 170 0
1 253 -349 0
1 253 244 0
1 253 251 0
1 261 348 0
1 261 -362 0
1 -261 -363 0
1 -260 -245 0
1 -260 -358 0
1 -260 364 0
1 364 365 0
1 -364 366 0
1 -364 -367 0
1 364 -251 0
1 244 260 0
1 -244 -253 0
1 -244 267 0
1 244 -261 0
1 244 -368 0
1 -244 353 0
1 -245 365 0
1 -245 -369 0
1 245 356 0
1 245 -370 0
1 245 -371 0
1 245 261 0
1 -245 353 0
1 -355 369 0
1 355 356 0
1 -355 253 0
1 -355 -372 0
1 355 -251 0
1 -259 268 0
1 -259 373 0
1 -259 -374 0
1 -259 -249 0
1 259 256 0
1 259 -360 0
1 259 244 0
1 259 -252 0
1 258 -373 0
1 258 374 0
1 -258 249 0
1 -258 -259 0
1 258 -244 0
1 258 -255 0
1 258 -250 0
1 -267 375 0
1 -267 376 0
1 267 377 0
1 366 268 0
1 -366 -374 0
1 366 375 0
1 -366 -256 0
1 -366 -244 0
1 374 -366 0
1 -374 378 0
1 374 -267 0
1 374 252 0
1 -374 379 0
1 252 260 0
1 252 -267 0
1 -252 -259 0
1 -373 365 0
1 -373 147 0
1 373 380 0
1 373 -267 0
1 373 261 0
1 373 -381 0
1 -363 260 0
1 363 382 0
1 265 269 0
1 -265 256 0
1 -265 -371 0
1 265 -161 0
1 -269 271 0
1 -269 -374 0
1 269 -383 0
1 -269 -377 0
1 378 -271 0
1 378 374 0
1 378 -376 0
1 378 384 0
1 279 -385 0
1 -279 -375 0
1 279 384 0
1 -376 269 0
1 376 386 0
1 376 -387 0
1 -376 -257 0
1 -377 267 0
1 375 378 0
1 -375 -267 0
1 -383 366 0
1 -383 265 0
1 383 267 0
1 -383 -279 0
1 -276 385 0
1 276 -271 0
1 -276 -264 0
1 -276 -384 0
1 -276 377 0
1 277 181 0
1 277 376 0
1 -277 263 0
1 -277 -377 0
1 -387 -385 0
1 387 388 0
1 -389 390 0
1 -389 -388 0
1 389 181 0
1 -389 -272 0
1 -391 -392 0
1 -391 -284 0
1 -391 -387 0
1 391 -378 0
1 -391 -161 0
1 -391 -393 0
1 391 -277 0
1 -385 393 0
1 -385 -279 0
1 -384 -392 0
1 384 -387 0
1 -384 276 0
1 384 -256 0
1 -384 -277 0
1 -390 276 0
1 -390 384 0
1 390 394 0
1 390 -277 0
1 -390 279 0
1 284 -385 0
1 -284 -278 0
1 -284 386 0
1 -284 -395 0
1 -284 -272 0
1 284 -283 0
1 -396 -181 0
1 396 281 0
1 396 -397 0
1 -398 -399 0
1 398 -285 0
1 393 385 0
1 393 -388 0
1 388 -400 0
1 388 401 0
1 388 389 0
1 -395 -392 0
1 400 -402 0
1 400 -401 0
1 400 -403 0
1 -401 -394 0
1 404 388 0
1 405 -402 0
1 405 -403 0
1 285 -404 0
1 -285 -400 0
1 -285 -398 0
1 -285 -401 0
1 285 283 0
1 -402 404 0
1 402 -281 0
1 -402 -401 0
1 403 -404 0
1 -403 400 0
1 403 406 0
1 403 405 0
1 300 407 0
1 300 -297 0
1 300 -292 0
1 -408 -407 0
1 -408 -300 0
1 -408 -305 0
1 -409 312 0
1 409 302 0
1 -409 -305 0
1 -312 -410 0
1 312 407 0
1 -312 -409 0
1 312 -411 0
1 -312 -305 0
1 412 413 0
1 -412 -409 0
1 407 -312 0
1 -407 412 0
1 -414 294 0
1 -306 -301 0
1 -306 -302 0
1 306 216 0
1 -306 407 0
1 306 -305 0
1 306 -298 0
1 -306 308 0
1 -306 307 0
1 307 -299 0
1 -307 199 0
1 -307 -411 0
1 -307 305 0
1 -317 412 0
1 -317 301 0
1 317 -299 0
1 317 -411 0
1 -317 415 0
1 -320 301 0
1 -320 -317 0
1 320 -415 0
1 320 416 0
1 -299 -417 0
1 -299 307 0
1 411 418 0
1 -411 -419 0
1 -411 -420 0
1 -301 -295 0
1 301 317 0
1 301 307 0
1 -421 -312 0
1 -421 306 0
1 421 -422 0
1 327 -299 0
1 327 194 0
1 327 416 0
1 -327 308 0
1 315 423 0
1 -315 327 0
1 315 194 0
1 315 -308 0
1 -315 -416 0
1 -315 -221 0
1 315 310 0
1 -417 -424 0
1 417 425 0
1 417 -313 0
1 417 -415 0
1 -417 310 0
1 326 -423 0
1 -326 -417 0
1 326 426 0
1 424 -303 0
1 -424 -427 0
1 424 -326 0
1 -424 315 0
1 416 321 0
1 416 424 0
1 -416 -417 0
1 416 327 0
1 -416 298 0
1 416 326 0
1 416 320 0
1 -423 302 0
1 -423 -418 0
1 423 317 0
1 423 427 0
1 415 417 0
1 -415 -428 0
1 -415 -305 0
1 415 -420 0
1 -415 -320 0
1 321 -418 0
1 321 424 0
1 321 319 0
1 324 -321 0
1 324 -424 0
1 -324 -425 0
1 324 -309 0
1 -324 420 0
1 -324 429 0
1 324 -426 0
1 324 -310 0
1 -335 -333 0
1 335 323 0
1 -335 319 0
1 335 -430 0
1 431 334 0
1 -431 -416 0
1 -431 -426 0
1 432 433 0
1 432 -321 0
1 432 417 0
1 432 -434 0
1 -432 431 0
1 426 -435 0
1 426 -335 0
1 -425 -335 0
1 425 321 0
1 425 -326 0
1 429 -435 0
1 429 -436 0
1 429 321 0
1 -429 -427 0
1 -332 346 0
1 332 328 0
1 -332 -329 0
1 -332 -344 0
1 -332 319 0
1 -344 332 0
1 344 328 0
1 344 325 0
1 344 238 0
1 344 -427 0
1 -344 336 0
1 433 -437 0
1 433 -438 0
1 433 426 0
1 343 -439 0
1 -343 -329 0
1 -343 -438 0
1 -343 -440 0
1 323 335 0
1 323 -338 0
1 323 -309 0
1 -323 -441 0
1 442 -311 0
1 -442 -433 0
1 442 -443 0
1 442 332 0
1 -442 -335 0
1 -442 444 0
1 442 323 0
1 -442 431 0
1 -442 -345 0
1 -325 -433 0
1 325 -332 0
1 325 -335 0
1 -325 -444 0
1 -325 -343 0
1 -430 -435 0
1 430 445 0
1 -430 332 0
1 430 -335 0
1 -430 -431 0
1 345 -446 0
1 345 337 0
1 -345 323 0
1 -345 447 0
1 338 329 0
1 338 341 0
1 338 -440 0
1 -338 330 0
1 -338 447 0
1 441 448 0
1 -441 -323 0
1 -441 438 0
1 -441 340 0
1 -354 446 0
1 -354 -449 0
1 -354 323 0
1 440 446 0
1 440 354 0
1 440 338 0
1 -440 -331 0
1 446 -433 0
1 -446 -328 0
1 -446 450 0
1 446 338 0
1 446 440 0
1 438 439 0
1 438 -354 0
1 -438 -451 0
1 438 452 0
1 439 -345 0
1 -361 337 0
1 361 347 0
1 361 -452 0
1 349 237 0
1 349 -253 0
1 -349 -449 0
1 -349 337 0
1 349 453 0
1 -349 454 0
1 362 -449 0
1 -362 352 0
1 362 340 0
1 -362 455 0
1 -358 352 0
1 358 -362 0
1 -358 340 0
1 340 -349 0
1 -340 453 0
1 -340 354 0
1 -340 456 0
1 340 -372 0
1 -340 -362 0
1 340 -441 0
1 453 -369 0
1 453 -341 0
1 -453 354 0
1 453 361 0
1 454 -457 0
1 454 336 0
1 -454 449 0
1 454 354 0
1 454 458 0
1 -454 362 0
1 454 361 0
1 449 -329 0
1 -449 456 0
1 -449 -454 0
1 360 237 0
1 -360 348 0
1 360 245 0
1 -360 -356 0
1 -360 -459 0
1 -356 -347 0
1 -356 236 0
1 -356 -350 0
1 -372 460 0
1 -372 245 0
1 -372 -459 0
1 -372 -352 0
1 -372 340 0
1 372 -455 0
1 372 350 0
1 -369 -357 0
1 -369 -359 0
1 -350 461 0
1 -350 371 0
1 -350 -362 0
1 -350 -462 0
1 352 -461 0
1 352 360 0
1 352 -381 0
1 455 -463 0
1 455 456 0
1 -455 462 0
1 459 462 0
1 371 -357 0
1 371 -364 0
1 -371 352 0
1 365 -269 0
1 -365 -245 0
1 365 244 0
1 -365 363 0
1 -365 350 0
1 -464 350 0
1 -464 373 0
1 464 -378 0
1 -464 463 0
1 464 465 0
1 381 -460 0
1 -381 -373 0
1 -381 359 0
1 381 465 0
1 -381 -363 0
1 -460 466 0
1 -460 467 0
1 -460 464 0
1 460 468 0
1 -460 372 0
1 -460 -469 0
1 468 -365 0
1 -468 460 0
1 -468 -470 0
1 468 -236 0
1 -468 -471 0
1 -468 -379 0
1 357 -237 0
1 357 -467 0
1 357 -381 0
1 -359 365 0
1 359 472 0
1 -359 461 0
1 359 469 0
1 -470 -460 0
1 -470 374 0
1 -470 468 0
1 470 363 0
1 -379 -367 0
1 379 373 0
1 -379 375 0
1 379 277 0
1 -379 -383 0
1 473 -370 0
1 473 367 0
1 -473 387 0
1 -473 375 0
1 473 465 0
1 -473 368 0
1 -473 382 0
1 473 -383 0
1 474 -382 0
1 474 367 0
1 474 473 0
1 -474 475 0
1 -474 -468 0
1 474 -368 0
1 367 -476 0
1 367 -399 0
1 367 -464 0
1 367 368 0
1 367 381 0
1 368 -367 0
1 -368 -473 0
1 -368 -477 0
1 368 244 0
1 -368 -397 0
1 -368 381 0
1 370 379 0
1 370 -381 0
1 465 -478 0
1 -465 -464 0
1 465 -469 0
1 -465 381 0
1 -386 380 0
1 -386 -475 0
1 386 397 0
1 -397 386 0
1 -397 376 0
1 -399 479 0
1 399 -480 0
1 -399 -368 0
1 399 481 0
1 -477 390 0
1 -477 399 0
1 477 -380 0
1 -477 -479 0
1 -477 -480 0
1 477 -384 0
1 477 393 0
1 -477 482 0
1 -477 483 0
1 -477 481 0
1 475 -484 0
1 -475 386 0
1 475 477 0
1 475 -397 0
1 483 252 0
1 -483 485 0
1 -380 -373 0
1 380 -473 0
1 -380 486 0
1 -380 -477 0
1 382 476 0
1 -382 -477 0
1 382 474 0
1 392 -400 0
1 392 -278 0
1 392 476 0
1 392 475 0
1 392 -480 0
1 -392 -391 0
1 -392 -481 0
1 394 -392 0
1 -394 -475 0
1 -394 401 0
1 -394 487 0
1 -484 -488 0
1 -484 -475 0
1 -485 484 0
1 485 480 0
1 -485 -395 0
1 485 487 0
1 485 -481 0
1 480 -481 0
1 -481 -392 0
1 481 -399 0
1 -481 480 0
1 487 399 0
1 -487 477 0
1 -418 301 0
1 -418 299 0
1 418 -489 0
1 418 420 0
1 420 413 0
1 -490 -413 0
1 490 -491 0
1 -490 492 0
1 490 -428 0
1 -490 -415 0
1 428 431 0
1 -428 -415 0
1 -413 -490 0
1 -413 -427 0
1 -489 -437 0
1 489 -436 0
1 489 490 0
1 -489 -493 0
1 -489 -420 0
1 -494 -495 0
1 -494 -496 0
1 -494 -420 0
1 496 -490 0
1 -496 -497 0
1 -436 413 0
1 -436 -491 0
1 -436 492 0
1 -436 -424 0
1 436 -422 0
1 427 491 0
1 427 425 0
1 -427 -489 0
1 -427 -422 0
1 -427 419 0
1 437 -433 0
1 437 498 0
1 -437 -489 0
1 437 -429 0
1 -499 437 0
1 -499 491 0
1 499 -498 0
1 -499 425 0
1 -492 437 0
1 492 436 0
1 492 -299 0
1 -492 500 0
1 492 501 0
1 492 428 0
1 -419 501 0
1 419 411 0
1 -419 502 0
1 491 436 0
1 -491 503 0
1 -491 501 0
1 -491 -427 0
1 -491 428 0
1 435 -498 0
1 -435 345 0
1 435 425 0
1 -435 504 0
1 -435 -426 0
1 -504 419 0
1 -504 429 0
1 -504 -426 0
1 -448 -505 0
1 -448 -325 0
1 -448 506 0
1 -448 -430 0
1 -505 498 0
1 505 507 0
1 505 325 0
1 505 -430 0
1 508 435 0
1 508 509 0
1 -508 498 0
1 508 510 0
1 511 435 0
1 -511 512 0
1 -511 -513 0
1 -511 -505 0
1 511 499 0
1 511 -514 0
1 -511 515 0
1 511 502 0
1 -506 512 0
1 506 -514 0
1 506 515 0
1 -452 516 0
1 452 439 0
1 -452 -325 0
1 444 -439 0
1 -444 349 0
1 444 498 0
1 444 -507 0
1 -444 325 0
1 -444 438 0
1 444 -517 0
1 -518 498 0
1 518 519 0
1 518 438 0
1 518 -515 0
1 509 443 0
1 509 439 0
1 509 -358 0
1 -509 -519 0
1 509 -517 0
1 434 520 0
1 434 457 0
1 434 -505 0
1 -434 -521 0
1 434 458 0
1 -434 -452 0
1 517 520 0
1 -517 509 0
1 -517 -522 0
1 517 451 0
1 517 452 0
1 507 512 0
1 507 -522 0
1 -507 -523 0
1 507 -448 0
1 -516 514 0
1 516 452 0
1 516 -524 0
1 451 443 0
1 -451 439 0
1 -451 449 0
1 -451 519 0
1 -451 -438 0
1 -451 517 0
1 -457 443 0
1 -457 -512 0
1 457 449 0
1 -457 -434 0
1 457 -438 0
1 457 451 0
1 -458 -450 0
1 458 519 0
1 -458 523 0
1 458 -525 0
1 -520 -445 0
1 -520 -369 0
1 -520 526 0
1 520 519 0
1 520 458 0
1 520 -527 0
1 519 520 0
1 -519 323 0
1 -519 -456 0
1 -519 -451 0
1 -519 518 0
1 443 -442 0
1 443 520 0
1 -443 -509 0
1 -443 -463 0
1 -443 -456 0
1 443 451 0
1 -526 -445 0
1 526 -457 0
1 526 -325 0
1 526 -528 0
1 526 -522 0
1 -526 458 0
1 526 -518 0
1 526 -529 0
1 -445 530 0
1 445 520 0
1 445 -531 0
1 445 528 0
1 456 -519 0
1 -456 522 0
1 532 -443 0
1 -532 530 0
1 -532 533 0
1 -532 -453 0
1 532 -456 0
1 -532 -340 0
1 463 -534 0
1 -463 -443 0
1 -463 -535 0
1 -463 -459 0
1 534 -459 0
1 -534 525 0
1 -534 -536 0
1 -525 462 0
1 -450 -520 0
1 -450 -537 0
1 -450 456 0
1 450 538 0
1 527 -534 0
1 527 -539 0
1 -527 463 0
1 527 -458 0
1 -527 -540 0
1 533 534 0
1 533 -541 0
1 533 531 0
1 -461 357 0
1 -461 -535 0
1 461 352 0
1 461 -455 0
1 461 -350 0
1 462 459 0
1 462 461 0
1 462 525 0
1 -462 -379 0
1 462 -529 0
1 -472 -357 0
1 -472 450 0
1 -472 -535 0
1 472 -542 0
1 -472 -538 0
1 538 -543 0
1 -538 -544 0
1 -538 -542 0
1 538 359 0
1 538 -545 0
1 536 546 0
1 536 -340 0
1 536 -482 0
1 536 469 0
1 536 462 0
1 -535 -534 0
1 -535 453 0
1 -535 463 0
1 535 -482 0
1 547 -544 0
1 547 472 0
1 -547 548 0
1 544 534 0
1 544 546 0
1 544 -449 0
1 -544 -549 0
1 -544 472 0
1 544 463 0
1 544 462 0
1 467 357 0
1 467 386 0
1 -467 -550 0
1 467 -542 0
1 467 -359 0
1 -469 465 0
1 -469 -397 0
1 469 551 0
1 -478 -543 0
1 478 -466 0
1 478 370 0
1 -478 471 0
1 482 542 0
1 482 552 0
1 482 536 0
1 -543 -467 0
1 543 -553 0
1 543 482 0
1 -543 469 0
1 542 -488 0
1 -542 478 0
1 -542 -486 0
1 -542 -553 0
1 542 -538 0
1 -545 -467 0
1 -545 -554 0
1 545 -469 0
1 550 478 0
1 -550 467 0
1 -550 548 0
1 -550 -469 0
1 476 -370 0
1 -476 -555 0
1 -553 543 0
1 -553 370 0
1 -553 367 0
1 -553 555 0
1 553 -548 0
1 -553 -368 0
1 -488 -543 0
1 488 -556 0
1 488 -380 0
1 488 -555 0
1 -488 486 0
1 488 -382 0
1 -486 543 0
1 -486 -471 0
1 -466 460 0
1 466 482 0
1 471 -466 0
1 -471 468 0
1 -471 482 0
1 557 482 0
1 555 488 0
1 555 553 0
1 502 -511 0
1 502 -493 0
1 -502 419 0
1 502 -506 0
1 -501 491 0
1 501 -511 0
1 501 -497 0
1 -501 506 0
1 515 497 0
1 515 493 0
1 515 506 0
1 515 -518 0
1 513 -495 0
1 513 493 0
1 -513 -558 0
1 513 559 0
1 -560 561 0
1 -560 512 0
1 560 493 0
1 560 -502 0
1 493 -560 0
1 493 -562 0
1 -493 -489 0
1 -493 -563 0
1 -493 502 0
1 495 -501 0
1 -495 515 0
1 -514 -560 0
1 514 511 0
1 514 -498 0
1 -514 -507 0
1 -514 451 0
1 512 -560 0
1 -512 -500 0
1 -512 -559 0
1 -512 506 0
1 512 -516 0
1 -523 -500 0
1 523 -564 0
1 523 558 0
1 523 516 0
1 562 560 0
1 -562 520 0
1 562 503 0
1 -562 -565 0
1 562 -564 0
1 -562 507 0
1 562 558 0
1 562 523 0
1 562 559 0
1 500 492 0
1 -500 522 0
1 -559 512 0
1 -559 528 0
1 -559 523 0
1 -559 566 0
1 503 562 0
1 503 -512 0
1 -503 514 0
1 -503 -566 0
1 -558 562 0
1 -558 -567 0
1 -522 526 0
1 522 -510 0
1 -530 -445 0
1 530 532 0
1 -530 -500 0
1 530 -564 0
1 530 507 0
1 530 526 0
1 -530 522 0
1 -528 -445 0
1 -528 -500 0
1 528 565 0
1 -528 568 0
1 528 -569 0
1 -528 570 0
1 -571 500 0
1 -571 -568 0
1 -571 521 0
1 -571 -528 0
1 571 -510 0
1 571 -524 0
1 -571 -570 0
1 -564 572 0
1 564 573 0
1 564 522 0
1 -564 -510 0
1 -510 530 0
1 510 -508 0
1 -510 -574 0
1 510 -529 0
1 -565 575 0
1 -565 -572 0
1 -565 576 0
1 565 -566 0
1 569 562 0
1 -569 576 0
1 569 522 0
1 -569 506 0
1 569 574 0
1 569 577 0
1 -531 -445 0
1 -531 -443 0
1 531 533 0
1 531 578 0
1 -531 521 0
1 -531 519 0
1 -531 527 0
1 -531 -510 0
1 -529 -445 0
1 -529 -443 0
1 529 531 0
1 529 -521 0
1 -529 510 0
1 -529 566 0
1 573 -579 0
1 573 -472 0
1 -573 576 0
1 -573 -527 0
1 -573 580 0
1 -580 -533 0
1 -580 521 0
1 580 -581 0
1 -580 527 0
1 -580 577 0
1 -580 -570 0
1 521 -549 0
1 521 -434 0
1 521 -528 0
1 521 552 0
1 521 551 0
1 -570 571 0
1 -570 582 0
1 570 517 0
1 570 -539 0
1 570 580 0
1 -568 -582 0
1 568 -572 0
1 -568 531 0
1 568 583 0
1 -568 -584 0
1 -568 -524 0
1 -568 -529 0
1 524 572 0
1 -524 529 0
1 -539 -544 0
1 539 521 0
1 -539 525 0
1 539 -570 0
1 551 585 0
1 551 -450 0
1 -551 539 0
1 551 527 0
1 551 -547 0
1 -551 -574 0
1 -549 521 0
1 552 -537 0
1 552 521 0
1 552 586 0
1 -581 -585 0
1 -581 -549 0
1 581 554 0
1 -585 549 0
1 -585 -539 0
1 -585 581 0
1 585 551 0
1 587 -579 0
1 -587 -582 0
1 -587 -549 0
1 587 588 0
1 -587 583 0
1 -579 -589 0
1 579 549 0
1 -546 -585 0
1 -546 -535 0
1 -546 550 0
1 -546 -548 0
1 548 585 0
1 -548 546 0
1 -556 -488 0
1 -556 550 0
1 -556 -540 0
1 556 -586 0
1 -554 -556 0
1 -554 540 0
1 -586 546 0
1 586 537 0
1 586 -554 0
1 -586 -525 0
1 537 450 0
1 537 -586 0
1 -540 556 0
1 540 527 0
1 -540 552 0
1 -541 533 0
1 -541 -548 0
1 578 569 0
1 -578 566 0
1 -566 590 0
1 -566 565 0
1 566 -569 0
1 -576 591 0
1 576 -573 0
1 -576 577 0
1 -577 565 0
1 577 -576 0
1 577 -563 0
1 -577 -567 0
1 561 560 0
1 561 -578 0
1 561 -584 0
1 561 -566 0
1 563 592 0
1 -563 572 0
1 -563 -576 0
1 563 493 0
1 -563 566 0
1 -590 -578 0
1 -590 577 0
1 -593 590 0
1 593 -577 0
1 -572 561 0
1 -572 -594 0
1 -572 -591 0
1 572 539 0
1 572 -595 0
1 574 -565 0
1 -574 -572 0
1 -574 -567 0
1 574 -510 0
1 -574 569 0
1 -592 575 0
1 592 -595 0
1 592 596 0
1 -592 524 0
1 584 -591 0
1 584 563 0
1 584 -567 0
1 591 -576 0
1 -595 582 0
1 -595 -572 0
1 595 -588 0
1 -595 583 0
1 -595 574 0
1 594 -592 0
1 594 574 0
1 567 -576 0
1 -567 -584 0
1 567 -577 0
1 582 -546 0
1 582 -521 0
1 -582 583 0
1 582 -597 0
1 582 596 0
1 582 -524 0
1 -583 591 0
1 583 598 0
1 -583 568 0
1 -583 595 0
1 -583 596 0
1 583 -570 0
1 -589 595 0
1 -588 -579 0
1 588 591 0
1 588 575 0
1 588 598 0
1 -588 597 0
1 588 -596 0
1 598 -564 0
1 598 583 0
1 596 -598 0
1 596 588 0
1 -575 -565 0
1 -575 -597 0
1 -597 583 0
1 597 -584 0
